<instance format="XCSP3" type="CSP">
  <variables>
    <array id="x" size="[75]"> 0 1 </array>
  </variables>
  <constraints>
    <extension>
      <list> x[48..49] x[0] </list>
      <supports> (0,0,1)(0,1,0)(1,0,0)(1,1,1) </supports>
    </extension>
    <group>
      <extension>
        <list> %0 %1 %2 </list>
        <supports> (0,0,1)(0,1,0)(1,0,0)(1,1,1) </supports>
      </extension>
      <args> x[0] x[50] x[1] </args>
      <args> x[1] x[51] x[2] </args>
      <args> x[2] x[52] x[3] </args>
      <args> x[3] x[53] x[4] </args>
      <args> x[4] x[54] x[5] </args>
      <args> x[5] x[55] x[6] </args>
      <args> x[6] x[56] x[7] </args>
      <args> x[7] x[57] x[8] </args>
      <args> x[8] x[58] x[9] </args>
      <args> x[9] x[59] x[10] </args>
      <args> x[10] x[60] x[11] </args>
      <args> x[11] x[61] x[12] </args>
      <args> x[12] x[62] x[13] </args>
      <args> x[13] x[63] x[14] </args>
      <args> x[14] x[64] x[15] </args>
      <args> x[15] x[65] x[16] </args>
      <args> x[16] x[66] x[17] </args>
      <args> x[17] x[67] x[18] </args>
      <args> x[18] x[68] x[19] </args>
      <args> x[19] x[69] x[20] </args>
      <args> x[20] x[70] x[21] </args>
      <args> x[21] x[71] x[22] </args>
      <args> x[22] x[72] x[23] </args>
    </group>
    <group>
      <extension>
        <list> %0 %1 %2 </list>
        <supports> (0,0,1)(0,1,0)(1,0,0)(1,1,1) </supports>
      </extension>
      <args> x[23] x[73..74] </args>
      <args> x[24] x[73..74] </args>
    </group>
    <group>
      <extension>
        <list> %0 %1 %2 </list>
        <supports> (0,0,1)(0,1,0)(1,0,0)(1,1,1) </supports>
      </extension>
      <args> x[25] x[72] x[24] </args>
      <args> x[26] x[71] x[25] </args>
      <args> x[27] x[70] x[26] </args>
      <args> x[28] x[69] x[27] </args>
      <args> x[29] x[68] x[28] </args>
      <args> x[30] x[67] x[29] </args>
      <args> x[31] x[66] x[30] </args>
      <args> x[32] x[65] x[31] </args>
      <args> x[33] x[64] x[32] </args>
      <args> x[34] x[63] x[33] </args>
      <args> x[35] x[62] x[34] </args>
      <args> x[36] x[61] x[35] </args>
      <args> x[37] x[60] x[36] </args>
      <args> x[38] x[59] x[37] </args>
      <args> x[39] x[58] x[38] </args>
      <args> x[40] x[57] x[39] </args>
      <args> x[41] x[56] x[40] </args>
      <args> x[42] x[55] x[41] </args>
      <args> x[43] x[54] x[42] </args>
      <args> x[44] x[53] x[43] </args>
      <args> x[45] x[52] x[44] </args>
      <args> x[46] x[51] x[45] </args>
      <args> x[47] x[50] x[46] </args>
    </group>
    <extension>
      <list> x[48] x[49] x[47] </list>
      <supports> (0,0,0)(0,1,1)(1,0,1)(1,1,0) </supports>
    </extension>
  </constraints>
</instance>
